InboundTrucks  = 30;
OutboundTrucks = 30;
InboundDoors   = 15;
OutboundDoors  = 15;
ReleaseTime    = [7,18,17,4,11,19,80,100,94,28,97,21,80,53,90,49,44,111,80,89,90,80,70,101,39,49,101,39,86,69];
UnloadTime     = [12,13,10,8,12,12,27,24,22,10,32,20,12,25,26,24,26,12,19,20,28,26,32,31,32,11,30,17,31,27];
LoadTime       = [13,5,10,8,15,13,10,14,22,20,11,17,22,11,18,22,14,18,22,23,16,16,18,24,16,14,14,18,15,10];
TransferTime   = [| 2,4,0,0,3,2,0,0,8,0,0,0,0,0,0,0,0,0,0,0,0,0,0,0,0,0,0,0,0,0 | 0,0,1,1,4,2,0,0,0,0,0,0,0,0,0,0,0,0,0,0,0,0,0,0,0,0,0,0,0,0 | 0,2,2,2,4,2,0,0,0,0,0,0,4,0,0,0,0,5,0,0,0,0,0,4,0,8,4,0,0,0 | 2,0,0,0,3,0,0,0,0,0,0,0,0,0,0,0,0,0,0,0,0,0,0,0,0,0,0,0,8,0 | 0,4,3,2,2,0,0,0,0,0,0,0,0,0,0,0,0,0,0,0,0,0,0,0,0,0,0,0,0,4 | 4,3,1,2,0,0,0,0,0,0,0,0,0,0,0,0,0,0,0,0,0,0,0,0,0,0,0,0,0,0 | 3,0,3,0,0,0,0,0,5,0,0,6,0,0,0,0,0,7,7,0,0,0,0,0,0,0,4,0,4,3 | 0,8,3,0,0,4,7,0,6,5,0,4,0,6,8,0,0,0,4,4,0,0,8,0,0,0,0,6,0,0 | 0,0,0,0,0,0,8,8,0,0,6,0,0,0,3,0,0,0,0,0,0,6,4,0,0,5,4,8,0,0 | 0,0,0,0,0,0,0,8,0,0,0,0,0,0,0,3,7,5,0,0,0,4,0,0,8,0,0,0,0,0 | 0,5,0,0,0,0,4,0,3,0,0,0,0,0,0,3,0,0,0,3,0,3,0,4,0,3,0,0,8,4 | 0,0,0,0,4,0,0,0,0,8,0,0,4,3,0,4,0,0,0,0,0,0,0,0,0,0,8,0,5,0 | 0,0,6,0,0,7,0,0,0,3,0,5,0,7,0,8,5,0,0,5,0,6,0,0,4,0,0,3,0,0 | 0,5,0,0,3,0,0,6,0,0,3,7,6,0,0,0,4,0,0,0,5,0,0,0,8,0,4,0,7,0 | 0,6,7,5,4,0,8,0,0,0,6,0,0,0,0,0,0,0,4,6,0,0,0,0,0,0,0,0,5,0 | 0,8,0,5,0,5,0,5,0,8,5,0,8,5,7,8,0,0,0,0,7,0,0,0,3,4,7,4,0,0 | 0,8,6,0,0,0,0,0,0,0,0,7,3,8,0,8,0,7,0,0,7,0,0,5,0,0,0,7,0,7 | 0,0,6,0,7,0,0,7,0,0,0,0,0,3,6,0,4,0,5,6,3,0,0,5,7,0,3,0,4,0 | 0,0,3,0,0,0,6,0,0,0,0,0,0,3,7,0,0,0,0,0,0,0,5,0,0,0,3,0,7,0 | 0,0,0,8,0,4,0,8,0,0,7,0,5,0,0,0,7,0,5,0,0,0,0,0,0,5,5,6,4,7 | 0,0,6,8,0,7,0,0,6,0,0,0,4,6,0,8,0,0,5,0,5,0,0,6,0,0,0,5,6,0 | 6,7,0,0,0,5,0,0,0,5,0,3,0,0,0,0,0,8,0,3,0,6,7,0,4,0,0,0,0,0 | 8,4,4,0,0,0,0,4,0,0,0,0,3,8,0,0,6,0,6,5,8,0,0,0,3,3,6,0,0,8 | 5,0,6,0,3,4,3,0,0,5,6,0,0,8,6,0,0,8,0,5,0,0,0,3,0,0,0,0,8,0 | 0,0,0,6,0,0,0,7,0,0,6,0,0,4,6,4,0,0,0,8,5,0,0,0,0,0,4,0,4,7 | 0,3,3,3,8,8,6,4,8,0,0,7,0,5,0,0,0,0,7,0,8,0,0,0,8,0,0,0,0,0 | 7,0,0,3,0,0,0,0,0,0,4,0,0,0,0,0,0,4,4,0,0,0,0,0,7,0,0,6,0,5 | 4,0,5,4,0,0,0,0,0,0,0,0,0,0,0,0,0,3,3,0,0,0,4,0,0,0,0,0,0,4 | 0,0,0,7,0,4,0,0,0,0,0,0,0,0,7,5,0,0,6,0,0,0,0,3,5,8,8,0,3,0 | 0,3,0,3,0,5,4,0,6,8,0,0,0,5,0,6,3,0,8,0,0,0,0,0,0,0,0,0,5,4 |];
